sat
(model
  (define-fun |loop$unknown:3|
    ( (v_0 Int) (v_1 Int) (v_2 Int) ) Bool
    (and (or (>= v_0 3) (not (= (+ 3 (* (- 1) v_2)) 0))) (or (>= (+ v_0 (* (- 1) v_2)) (- 1)) (and (>= v_1 0) (>= (* (- 1) v_2) 0) (not (= (+ (- 1) v_2) 0)) (>= (+ (* (- 1) v_0) v_2) 2)) (and (>= v_0 0) (not (= (+ (- 1) v_2) 0)) (>= (+ (* (- 1) v_0) v_2) 2) (or (>= (* (- 1) v_1) 1) (>= v_2 1)))))
  )
)
